NAME: eilC76_25
COMMENT: 744.71
VEHICLE: 8
TIME: 62.5555
DIMENSION: 76
CAPACITY: 180
DELIVERY_SECTION
0 0 0
1 1 18
2 2 18
3 2 1.8
4 2 1.8
5 2 1.8
6 2 1.8
7 2 0.8
8 3 9
9 3 1.8
10 3 0.2
11 4 18
12 4 9
13 4 1.8
14 4 1.2
15 5 18
16 5 1.8
17 5 1.2
18 6 18
19 6 1
20 7 9
21 7 1.8
22 7 1.8
23 7 1.8
24 7 0.6
25 8 9
26 8 1.8
27 8 1.8
28 8 1.8
29 8 1.6
30 9 18
31 9 9
32 9 1.8
33 9 0.2
34 10 18
35 10 1.8
36 10 1.8
37 10 1.8
38 10 1.8
39 10 0.8
40 11 18
41 11 18
42 11 1
43 12 9
44 12 1.8
45 12 1.8
46 12 1.8
47 12 1.6
48 13 9
49 13 1.8
50 13 1.2
51 14 18
52 14 9
53 14 1.8
54 14 1.8
55 14 0.4
56 15 1.8
57 15 1.8
58 15 1.8
59 15 1.8
60 15 0.8
61 16 18
62 16 1
63 17 18
64 17 1.8
65 17 0.2
66 18 9
67 18 1.8
68 18 1.8
69 18 0.4
70 19 9
71 19 1.8
72 19 1.8
73 19 1.8
74 19 0.6
75 20 18
76 20 1.8
77 20 1.8
78 20 0.4
79 21 18
80 21 9
81 21 1
82 22 9
83 22 1.8
84 22 1.2
85 23 1.8
86 23 1.8
87 23 1.8
88 23 0.6
89 24 18
90 24 9
91 25 9
92 25 1.8
93 25 1.8
94 25 1.4
95 26 18
96 27 9
97 27 1.8
98 27 1.8
99 27 1.8
100 27 1.8
101 27 0.8
102 28 18
103 28 9
104 28 1.8
105 28 0.2
106 29 9
107 29 1.8
108 29 1.8
109 29 0.4
110 30 18
111 30 1.8
112 30 1.8
113 30 0.4
114 31 18
115 31 1.8
116 31 1.8
117 31 1.8
118 31 1.6
119 32 18
120 32 9
121 32 1
122 33 18
123 33 9
124 34 18
125 34 1
126 35 9
127 35 1
128 36 9
129 36 1.8
130 36 1.2
131 37 9
132 37 1.8
133 37 1.8
134 37 1.4
135 38 18
136 38 1.8
137 38 1.8
138 38 1.8
139 38 0.6
140 39 9
141 39 1.8
142 39 1.8
143 39 1.8
144 39 1.6
145 40 18
146 40 9
147 40 1.8
148 40 1.8
149 40 1.8
150 40 0.6
151 41 9
152 41 1.8
153 41 1.8
154 41 1.8
155 41 0.6
156 42 9
157 42 1.8
158 42 0.2
159 43 18
160 44 9
161 44 1.8
162 44 1.8
163 44 1.8
164 44 1.8
165 44 0.8
166 45 18
167 45 1.8
168 45 1.2
169 46 18
170 46 9
171 47 18
172 47 1
173 48 18
174 48 1.8
175 48 0.2
176 49 1.8
177 49 1.8
178 49 1.4
179 50 18
180 50 1.8
181 50 1.8
182 50 0.4
183 51 9
184 51 1.8
185 51 1.2
186 52 18
187 52 1
188 53 18
189 53 1.8
190 53 1.8
191 53 0.4
192 54 9
193 54 1.8
194 54 1.8
195 54 1.8
196 54 1.6
197 55 1.8
198 55 1.8
199 55 1.8
200 55 1.6
201 56 18
202 56 1.8
203 56 1.8
204 56 1.8
205 56 1.8
206 56 0.8
207 57 9
208 57 1.8
209 57 1.8
210 57 1.4
211 58 18
212 58 1.8
213 58 1.2
214 59 18
215 59 1.8
216 59 1.8
217 59 1.8
218 59 0.6
219 60 9
220 60 1.8
221 60 1.8
222 60 0.4
223 61 9
224 61 1.8
225 61 1.8
226 61 1.8
227 61 0.6
228 62 18
229 63 9
230 63 1.8
231 63 0.2
232 64 18
233 64 9
234 64 1
235 65 9
236 66 18
237 66 18
238 66 1
239 67 18
240 67 9
241 67 1.8
242 67 1.2
243 68 9
244 68 1
245 69 1.8
246 69 1.8
247 69 1.8
248 69 1.8
249 69 0.8
250 70 9
251 70 1.8
252 70 0.2
253 71 1.8
254 71 1.2
255 72 1
256 73 1.8
257 73 1.8
258 73 1.8
259 73 0.6
260 74 9
261 74 1
262 75 18
263 75 1.8
264 75 0.2
PICKUP_SECTION
NODE_SECTION
40 40

22 22

36 26

21 45

45 35

55 20

33 34

50 50

55 45

26 59

40 66

55 65

35 51

62 35

62 57

62 24

21 36

33 44

 9 56

62 48

66 14

44 13

26 13

11 28

 7 43

17 64

41 46

55 34

35 16

52 26

43 26

31 76

22 53

26 29

50 40

55 50

54 10

60 15

47 66

30 60

30 50

12 17

15 14

16 19

21 48

50 30

51 42

50 15

48 21

12 38

15 56

29 39

54 38

55 57

67 41

10 70

 6 25

65 27

40 60

70 64

64  4

36  6

30 20

20 30

15  5

50 70

57 72

45 42

38 33

50  4

66  8

59  5

35 60

27 24

40 20

40 37
DISTANCE_SECTION
DEPOT_SECTION
0
EOF